NAME: random-93-29560
TYPE: TSP
COMMENT: size=93 seed=29560
DIMENSION: 188
EDGE_WEIGHT_TYPE: EUC_2D
NODE_COORD_SECTION
+0 920 904
-0 920 904
+1 844 936
-1 310 331
+2 120 77
-2 8 9
+3 259 933
-3 460 601
+4 287 371
-4 949 895
+5 700 893
-5 770 479
+6 836 808
-6 894 817
+7 448 231
-7 197 650
+8 294 779
-8 174 286
+9 340 167
-9 375 807
+10 126 852
-10 513 117
+11 674 444
-11 543 263
+12 173 620
-12 481 393
+13 364 118
-13 587 513
+14 933 262
-14 28 550
+15 893 249
-15 573 230
+16 805 833
-16 171 226
+17 975 20
-17 280 675
+18 670 516
-18 27 177
+19 975 600
-19 30 391
+20 310 505
-20 797 110
+21 265 177
-21 786 619
+22 239 778
-22 509 942
+23 528 636
-23 89 431
+24 853 595
-24 513 127
+25 906 663
-25 377 343
+26 399 474
-26 927 201
+27 334 695
-27 760 367
+28 929 490
-28 510 50
+29 386 104
-29 558 535
+30 817 868
-30 704 318
+31 482 726
-31 852 923
+32 851 978
-32 827 122
+33 299 540
-33 132 493
+34 716 153
-34 781 795
+35 779 433
-35 247 707
+36 258 699
-36 176 634
+37 156 680
-37 68 257
+38 125 752
-38 501 33
+39 825 203
-39 175 74
+40 958 659
-40 604 24
+41 94 149
-41 471 534
+42 431 224
-42 141 827
+43 852 562
-43 940 447
+44 440 569
-44 830 994
+45 443 777
-45 256 460
+46 806 386
-46 824 651
+47 609 991
-47 930 548
+48 291 351
-48 726 79
+49 586 319
-49 298 554
+50 838 421
-50 620 596
+51 59 256
-51 718 198
+52 761 334
-52 271 903
+53 471 163
-53 55 522
+54 637 525
-54 685 92
+55 23 934
-55 535 791
+56 584 749
-56 248 193
+57 354 95
-57 355 324
+58 527 282
-58 936 325
+59 883 352
-59 629 829
+60 921 94
-60 260 292
+61 562 76
-61 709 100
+62 301 667
-62 641 105
+63 60 820
-63 762 931
+64 102 661
-64 11 412
+65 755 88
-65 322 648
+66 39 210
-66 553 736
+67 508 229
-67 705 177
+68 972 181
-68 220 108
+69 172 603
-69 911 20
+70 309 622
-70 750 912
+71 782 903
-71 529 857
+72 725 924
-72 598 926
+73 339 633
-73 785 332
+74 85 306
-74 69 589
+75 420 808
-75 23 532
+76 804 739
-76 830 919
+77 471 143
-77 773 336
+78 589 700
-78 312 300
+79 404 147
-79 818 924
+80 760 100
-80 412 333
+81 200 639
-81 785 872
+82 202 735
-82 643 759
+83 921 17
-83 131 792
+84 255 89
-84 337 585
+85 321 917
-85 223 321
+86 585 158
-86 154 783
+87 865 250
-87 238 637
+88 14 6
-88 73 165
+89 144 139
-89 476 662
+90 16 793
-90 585 198
+91 119 763
-91 313 915
+92 629 971
-92 675 296
+93 889 756
-93 583 681
PRECEDENCE_SECTION
+0 -0
+1 -1
+2 -2
+3 -3
+4 -4
+5 -5
+6 -6
+7 -7
+8 -8
+9 -9
+10 -10
+11 -11
+12 -12
+13 -13
+14 -14
+15 -15
+16 -16
+17 -17
+18 -18
+19 -19
+20 -20
+21 -21
+22 -22
+23 -23
+24 -24
+25 -25
+26 -26
+27 -27
+28 -28
+29 -29
+30 -30
+31 -31
+32 -32
+33 -33
+34 -34
+35 -35
+36 -36
+37 -37
+38 -38
+39 -39
+40 -40
+41 -41
+42 -42
+43 -43
+44 -44
+45 -45
+46 -46
+47 -47
+48 -48
+49 -49
+50 -50
+51 -51
+52 -52
+53 -53
+54 -54
+55 -55
+56 -56
+57 -57
+58 -58
+59 -59
+60 -60
+61 -61
+62 -62
+63 -63
+64 -64
+65 -65
+66 -66
+67 -67
+68 -68
+69 -69
+70 -70
+71 -71
+72 -72
+73 -73
+74 -74
+75 -75
+76 -76
+77 -77
+78 -78
+79 -79
+80 -80
+81 -81
+82 -82
+83 -83
+84 -84
+85 -85
+86 -86
+87 -87
+88 -88
+89 -89
+90 -90
+91 -91
+92 -92
+93 -93
EOF
